12° run output:
{
    "Function": "kroB300.tsp",
    "Problem dimension": [
        255,
        263,
        269,
        193,
        48,
        282,
        3,
        27,
        174,
        216,
        222,
        237,
        162,
        211,
        0,
        107,
        223,
        208,
        259,
        70,
        49,
        261,
        168,
        220,
        98,
        227,
        224,
        293,
        244,
        46,
        80,
        39,
        61,
        256,
        99,
        219,
        285,
        228,
        118,
        153,
        284,
        209,
        51,
        141,
        298,
        184,
        146,
        47,
        270,
        286,
        190,
        85,
        253,
        147,
        136,
        34,
        195,
        280,
        103,
        204,
        112,
        6,
        130,
        56,
        36,
        258,
        250,
        45,
        38,
        121,
        84,
        200,
        54,
        64,
        187,
        262,
        42,
        88,
        24,
        94,
        128,
        299,
        169,
        10,
        7,
        189,
        239,
        149,
        254,
        23,
        151,
        100,
        68,
        126,
        297,
        142,
        241,
        55,
        50,
        274,
        96,
        148,
        90,
        8,
        108,
        186,
        207,
        167,
        249,
        109,
        152,
        143,
        95,
        16,
        170,
        77,
        202,
        264,
        119,
        201,
        205,
        145,
        267,
        272,
        13,
        161,
        215,
        134,
        67,
        122,
        137,
        158,
        105,
        102,
        172,
        248,
        19,
        79,
        252,
        15,
        191,
        236,
        124,
        155,
        14,
        291,
        296,
        150,
        53,
        33,
        173,
        22,
        183,
        131,
        192,
        243,
        139,
        238,
        294,
        12,
        230,
        17,
        199,
        144,
        175,
        180,
        78,
        176,
        194,
        93,
        287,
        133,
        115,
        225,
        245,
        177,
        28,
        135,
        283,
        198,
        114,
        242,
        129,
        40,
        81,
        65,
        210,
        185,
        288,
        73,
        290,
        273,
        37,
        229,
        163,
        154,
        1,
        132,
        106,
        120,
        32,
        234,
        44,
        18,
        62,
        289,
        159,
        26,
        171,
        113,
        20,
        60,
        111,
        266,
        86,
        71,
        178,
        123,
        221,
        29,
        4,
        278,
        231,
        271,
        182,
        257,
        279,
        76,
        232,
        127,
        212,
        69,
        97,
        179,
        188,
        52,
        110,
        30,
        265,
        101,
        233,
        87,
        57,
        214,
        164,
        59,
        226,
        43,
        295,
        82,
        117,
        156,
        276,
        63,
        104,
        181,
        5,
        206,
        125,
        203,
        41,
        35,
        91,
        83,
        213,
        66,
        196,
        74,
        275,
        218,
        281,
        58,
        157,
        89,
        11,
        31,
        247,
        160,
        251,
        268,
        75,
        166,
        277,
        25,
        197,
        140,
        240,
        9,
        165,
        116,
        2,
        92,
        72,
        292,
        260,
        138,
        246,
        21,
        235,
        217
    ],
    "Global Optimum": 0,
    "Algorithm": "Genetic algorithm",
    "Parameters": {
        "population": 30,
        "offspring": 30,
        "mutation probability": 0.0033333333333333335,
        "crossover probability": 0.9
    },
    "Fitness": 291043,
    "Solution": [
        255,
        263,
        269,
        193,
        48,
        282,
        3,
        27,
        174,
        216,
        222,
        237,
        162,
        211,
        0,
        107,
        223,
        208,
        259,
        70,
        49,
        261,
        168,
        220,
        98,
        227,
        224,
        293,
        244,
        46,
        80,
        39,
        61,
        256,
        99,
        219,
        285,
        228,
        118,
        153,
        284,
        209,
        51,
        141,
        298,
        184,
        146,
        47,
        270,
        286,
        190,
        85,
        253,
        147,
        136,
        34,
        195,
        280,
        103,
        204,
        112,
        6,
        130,
        56,
        36,
        258,
        250,
        45,
        38,
        121,
        84,
        200,
        54,
        64,
        187,
        262,
        42,
        88,
        24,
        94,
        128,
        299,
        169,
        10,
        7,
        189,
        239,
        149,
        254,
        23,
        151,
        100,
        68,
        126,
        297,
        142,
        241,
        55,
        50,
        274,
        96,
        148,
        90,
        8,
        108,
        186,
        207,
        167,
        249,
        109,
        152,
        143,
        95,
        16,
        170,
        77,
        202,
        264,
        119,
        201,
        205,
        145,
        267,
        272,
        13,
        161,
        215,
        134,
        67,
        122,
        137,
        158,
        105,
        102,
        172,
        248,
        19,
        79,
        252,
        15,
        191,
        236,
        124,
        155,
        14,
        291,
        296,
        150,
        53,
        33,
        173,
        22,
        183,
        131,
        192,
        243,
        139,
        238,
        294,
        12,
        230,
        17,
        199,
        144,
        175,
        180,
        78,
        176,
        194,
        93,
        287,
        133,
        115,
        225,
        245,
        177,
        28,
        135,
        283,
        198,
        114,
        242,
        129,
        40,
        81,
        65,
        210,
        185,
        288,
        73,
        290,
        273,
        37,
        229,
        163,
        154,
        1,
        132,
        106,
        120,
        32,
        234,
        44,
        18,
        62,
        289,
        159,
        26,
        171,
        113,
        20,
        60,
        111,
        266,
        86,
        71,
        178,
        123,
        221,
        29,
        4,
        278,
        231,
        271,
        182,
        257,
        279,
        76,
        232,
        127,
        212,
        69,
        97,
        179,
        188,
        52,
        110,
        30,
        265,
        101,
        233,
        87,
        57,
        214,
        164,
        59,
        226,
        43,
        295,
        82,
        117,
        156,
        276,
        63,
        104,
        181,
        5,
        206,
        125,
        203,
        41,
        35,
        91,
        83,
        213,
        66,
        196,
        74,
        275,
        218,
        281,
        58,
        157,
        89,
        11,
        31,
        247,
        160,
        251,
        268,
        75,
        166,
        277,
        25,
        197,
        140,
        240,
        9,
        165,
        116,
        2,
        92,
        72,
        292,
        260,
        138,
        246,
        21,
        235,
        217
    ],
    "Nb of functions evaluations": 200010,
    "Computational time in seconds": 332.9619929790497,
    "Stopping criterion in evaluations": 200000
}